(set-logic QF_UF)
(declare-fun A0 () Bool)
(declare-fun A1 () Bool)
(declare-fun A2 () Bool)
(declare-fun A3 () Bool)
(declare-fun A4 () Bool)
(declare-fun A5 () Bool)
(declare-fun A6 () Bool)
(declare-fun A7 () Bool)
(declare-fun A8 () Bool)
(declare-fun A9 () Bool)
(declare-fun A10 () Bool)
(declare-fun A11 () Bool)
(declare-fun A12 () Bool)
(declare-fun A13 () Bool)
(declare-fun A14 () Bool)
(declare-fun A15 () Bool)
(declare-fun A16 () Bool)
(declare-fun A17 () Bool)
(declare-fun A18 () Bool)
(declare-fun A19 () Bool)
(declare-fun A20 () Bool)
(declare-fun A21 () Bool)
(declare-fun A22 () Bool)
(declare-fun A23 () Bool)
(declare-fun A24 () Bool)
(assert (let ((.def_0 (not A12))) (let ((.def_1 (and A22 .def_0))) (let ((.def_2 (or A10 A17))) (let ((.def_3 (not .def_2))) (let ((.def_4 (and .def_3 .def_1))) (let ((.def_5 (or A1 A3))) (let ((.def_6 (not .def_5))) (let ((.def_7 (or A2 A18))) (let ((.def_8 (or .def_7 .def_6))) (let ((.def_9 (or .def_8 .def_4))) (let ((.def_10 (not .def_9))) (let ((.def_11 (not A0))) (let ((.def_12 (not A14))) (let ((.def_13 (or .def_12 .def_11))) (let ((.def_14 (not .def_13))) (let ((.def_15 (not A18))) (let ((.def_16 (and .def_15 A2))) (let ((.def_17 (not .def_16))) (let ((.def_18 (or .def_17 .def_14))) (let ((.def_19 (not A7))) (let ((.def_20 (or A13 .def_19))) (let ((.def_21 (not A19))) (let ((.def_22 (and .def_21 A7))) (let ((.def_23 (or .def_22 .def_20))) (let ((.def_24 (not .def_23))) (let ((.def_25 (or .def_24 .def_18))) (let ((.def_26 (not .def_25))) (let ((.def_27 (and .def_26 .def_10))) (let ((.def_28 (not .def_27))) (let ((.def_29 (= A22 A1))) (let ((.def_30 (not .def_29))) (let ((.def_31 (not A5))) (let ((.def_32 (not A3))) (let ((.def_33 (and .def_32 .def_31))) (let ((.def_34 (= .def_33 .def_30))) (let ((.def_35 (not .def_34))) (let ((.def_36 (not A17))) (let ((.def_37 (and .def_36 A17))) (let ((.def_38 (not .def_37))) (let ((.def_39 (not A16))) (let ((.def_40 (or .def_39 .def_11))) (let ((.def_41 (or .def_40 .def_38))) (let ((.def_42 (not .def_41))) (let ((.def_43 (= .def_42 .def_35))) (let ((.def_44 (not A11))) (let ((.def_45 (or A6 .def_44))) (let ((.def_46 (and A4 .def_15))) (let ((.def_47 (not .def_46))) (let ((.def_48 (= .def_47 .def_45))) (let ((.def_49 (and A18 .def_15))) (let ((.def_50 (not A22))) (let ((.def_51 (not A13))) (let ((.def_52 (and .def_51 .def_50))) (let ((.def_53 (not .def_52))) (let ((.def_54 (= .def_53 .def_49))) (let ((.def_55 (and .def_54 .def_48))) (let ((.def_56 (not .def_55))) (let ((.def_57 (and .def_56 .def_43))) (let ((.def_58 (not .def_57))) (let ((.def_59 (or .def_58 .def_28))) (let ((.def_60 (not .def_59))) (let ((.def_61 (not A21))) (let ((.def_62 (and A8 .def_61))) (let ((.def_63 (and A6 .def_51))) (let ((.def_64 (= .def_63 .def_62))) (let ((.def_65 (not A2))) (let ((.def_66 (and .def_11 .def_65))) (let ((.def_67 (not A20))) (let ((.def_68 (or .def_67 .def_21))) (let ((.def_69 (or .def_68 .def_66))) (let ((.def_70 (and .def_69 .def_64))) (let ((.def_71 (= A8 A2))) (let ((.def_72 (not .def_71))) (let ((.def_73 (not A4))) (let ((.def_74 (or A10 .def_73))) (let ((.def_75 (not .def_74))) (let ((.def_76 (or .def_75 .def_72))) (let ((.def_77 (not .def_76))) (let ((.def_78 (not A24))) (let ((.def_79 (or .def_78 A20))) (let ((.def_80 (not .def_79))) (let ((.def_81 (not A23))) (let ((.def_82 (and .def_21 .def_81))) (let ((.def_83 (and .def_82 .def_80))) (let ((.def_84 (not .def_83))) (let ((.def_85 (or .def_84 .def_77))) (let ((.def_86 (not .def_85))) (let ((.def_87 (= .def_86 .def_70))) (let ((.def_88 (not .def_87))) (let ((.def_89 (not A10))) (let ((.def_90 (and .def_89 .def_61))) (let ((.def_91 (or .def_12 A1))) (let ((.def_92 (not .def_91))) (let ((.def_93 (or .def_92 .def_90))) (let ((.def_94 (not .def_93))) (let ((.def_95 (not A9))) (let ((.def_96 (and .def_21 .def_95))) (let ((.def_97 (not .def_96))) (let ((.def_98 (not A1))) (let ((.def_99 (and .def_98 .def_15))) (let ((.def_100 (not .def_99))) (let ((.def_101 (and .def_100 .def_97))) (let ((.def_102 (and .def_101 .def_94))) (let ((.def_103 (not .def_102))) (let ((.def_104 (or A13 A24))) (let ((.def_105 (not A15))) (let ((.def_106 (= A7 .def_105))) (let ((.def_107 (or .def_106 .def_104))) (let ((.def_108 (or .def_19 A11))) (let ((.def_109 (not .def_108))) (let ((.def_110 (or .def_67 .def_0))) (let ((.def_111 (not .def_110))) (let ((.def_112 (and .def_111 .def_109))) (let ((.def_113 (not .def_112))) (let ((.def_114 (and .def_113 .def_107))) (let ((.def_115 (not .def_114))) (let ((.def_116 (and .def_115 .def_103))) (let ((.def_117 (not .def_116))) (let ((.def_118 (or .def_117 .def_88))) (let ((.def_119 (not .def_118))) (let ((.def_120 (or .def_119 .def_60))) .def_120))))))))))))))))))))))))))))))))))))))))))))))))))))))))))))))))))))))))))))))))))))))))))))))))))))))))))))))))))))))))))
(check-sat)
